c colouring generated by benchmark framework
p edge 450 16750
v 1 15
v 2 9
v 3 7
v 4 1
v 5 19
v 6 4
v 7 12
v 8 23
v 9 20
v 10 2
v 11 11
v 12 7
v 13 16
v 14 5
v 15 12
v 16 4
v 17 24
v 18 13
v 19 22
v 20 21
v 21 12
v 22 8
v 23 6
v 24 20
v 25 10
v 26 21
v 27 5
v 28 8
v 29 18
v 30 18
v 31 0
v 32 18
v 33 4
v 34 0
v 35 12
v 36 21
v 37 1
v 38 5
v 39 8
v 40 14
v 41 5
v 42 5
v 43 16
v 44 12
v 45 0
v 46 0
v 47 7
v 48 5
v 49 19
v 50 19
v 51 5
v 52 16
v 53 18
v 54 9
v 55 1
v 56 2
v 57 8
v 58 14
v 59 2
v 60 7
v 61 6
v 62 5
v 63 7
v 64 17
v 65 17
v 66 20
v 67 23
v 68 11
v 69 7
v 70 24
v 71 13
v 72 9
v 73 5
v 74 21
v 75 18
v 76 9
v 77 7
v 78 8
v 79 23
v 80 15
v 81 12
v 82 18
v 83 22
v 84 24
v 85 2
v 86 0
v 87 19
v 88 4
v 89 9
v 90 14
v 91 6
v 92 8
v 93 22
v 94 19
v 95 10
v 96 11
v 97 5
v 98 17
v 99 7
v 100 22
v 101 2
v 102 10
v 103 2
v 104 14
v 105 3
v 106 12
v 107 18
v 108 18
v 109 1
v 110 0
v 111 0
v 112 1
v 113 7
v 114 5
v 115 18
v 116 5
v 117 15
v 118 10
v 119 10
v 120 21
v 121 22
v 122 17
v 123 8
v 124 22
v 125 13
v 126 18
v 127 9
v 128 20
v 129 16
v 130 1
v 131 7
v 132 6
v 133 3
v 134 9
v 135 3
v 136 9
v 137 2
v 138 5
v 139 15
v 140 9
v 141 21
v 142 1
v 143 8
v 144 15
v 145 13
v 146 15
v 147 7
v 148 11
v 149 2
v 150 4
v 151 20
v 152 15
v 153 22
v 154 17
v 155 21
v 156 8
v 157 1
v 158 16
v 159 17
v 160 23
v 161 10
v 162 9
v 163 8
v 164 11
v 165 14
v 166 0
v 167 4
v 168 6
v 169 13
v 170 0
v 171 10
v 172 15
v 173 23
v 174 20
v 175 11
v 176 11
v 177 20
v 178 17
v 179 19
v 180 16
v 181 23
v 182 6
v 183 15
v 184 1
v 185 11
v 186 6
v 187 17
v 188 2
v 189 19
v 190 2
v 191 24
v 192 5
v 193 11
v 194 4
v 195 3
v 196 10
v 197 0
v 198 15
v 199 1
v 200 16
v 201 0
v 202 14
v 203 4
v 204 7
v 205 17
v 206 21
v 207 11
v 208 13
v 209 11
v 210 0
v 211 0
v 212 3
v 213 4
v 214 17
v 215 19
v 216 10
v 217 8
v 218 17
v 219 15
v 220 6
v 221 6
v 222 12
v 223 1
v 224 11
v 225 24
v 226 0
v 227 5
v 228 21
v 229 19
v 230 0
v 231 10
v 232 12
v 233 18
v 234 2
v 235 24
v 236 14
v 237 20
v 238 23
v 239 2
v 240 10
v 241 8
v 242 4
v 243 7
v 244 20
v 245 7
v 246 2
v 247 23
v 248 1
v 249 16
v 250 12
v 251 6
v 252 5
v 253 5
v 254 13
v 255 16
v 256 12
v 257 11
v 258 17
v 259 9
v 260 19
v 261 20
v 262 1
v 263 5
v 264 13
v 265 6
v 266 18
v 267 10
v 268 18
v 269 4
v 270 19
v 271 20
v 272 18
v 273 18
v 274 1
v 275 16
v 276 20
v 277 14
v 278 11
v 279 14
v 280 17
v 281 5
v 282 16
v 283 2
v 284 6
v 285 13
v 286 10
v 287 22
v 288 3
v 289 6
v 290 12
v 291 13
v 292 17
v 293 8
v 294 21
v 295 3
v 296 9
v 297 8
v 298 7
v 299 10
v 300 21
v 301 10
v 302 9
v 303 12
v 304 22
v 305 19
v 306 6
v 307 4
v 308 8
v 309 10
v 310 22
v 311 4
v 312 20
v 313 1
v 314 19
v 315 0
v 316 6
v 317 8
v 318 22
v 319 1
v 320 10
v 321 21
v 322 16
v 323 2
v 324 16
v 325 19
v 326 2
v 327 16
v 328 6
v 329 0
v 330 14
v 331 8
v 332 6
v 333 3
v 334 12
v 335 0
v 336 4
v 337 12
v 338 20
v 339 21
v 340 2
v 341 10
v 342 20
v 343 15
v 344 15
v 345 6
v 346 13
v 347 22
v 348 22
v 349 3
v 350 18
v 351 17
v 352 3
v 353 7
v 354 13
v 355 5
v 356 3
v 357 5
v 358 1
v 359 12
v 360 23
v 361 14
v 362 15
v 363 14
v 364 3
v 365 15
v 366 19
v 367 13
v 368 1
v 369 4
v 370 22
v 371 10
v 372 23
v 373 11
v 374 3
v 375 18
v 376 6
v 377 17
v 378 7
v 379 16
v 380 13
v 381 2
v 382 8
v 383 4
v 384 1
v 385 7
v 386 10
v 387 17
v 388 14
v 389 1
v 390 9
v 391 6
v 392 8
v 393 8
v 394 22
v 395 0
v 396 14
v 397 0
v 398 13
v 399 24
v 400 19
v 401 7
v 402 15
v 403 20
v 404 10
v 405 3
v 406 10
v 407 2
v 408 12
v 409 22
v 410 19
v 411 11
v 412 14
v 413 24
v 414 19
v 415 3
v 416 9
v 417 12
v 418 21
v 419 16
v 420 24
v 421 9
v 422 11
v 423 7
v 424 22
v 425 17
v 426 14
v 427 23
v 428 14
v 429 9
v 430 24
v 431 3
v 432 3
v 433 22
v 434 15
v 435 17
v 436 0
v 437 11
v 438 13
v 439 11
v 440 21
v 441 6
v 442 1
v 443 21
v 444 11
v 445 5
v 446 18
v 447 6
v 448 2
v 449 4
v 450 14
